100
1000
200
200
199
199
199
198
197
197
197
196
196
194
192
192
192
191
191
191
190
190
190
189
189
188
188
188
186
186
185
185
184
184
183
183
182
182
182
182
181
181
181
179
179
179
179
178
177
177
173
173
173
171
171
171
171
170
169
169
168
168
168
168
167
167
166
165
165
164
164
164
163
163
163
162
162
162
161
161
161
161
161
161
160
159
158
158
157
157
156
155
155
155
154
153
153
152
152
151
150
150
